clasp version 2.1.3
Reading from asp/inst/pb_400_01.lp
Solving...
UNKNOWN

TIME LIMIT  : 1
Models      : 0+    
Time        : 1799.994s (Solving: 1794.94s 1st Model: 0.00s Unsat: 0.00s)
CPU Time    : 1795.960s
Choices     : 7782318
Conflicts   : 909749
Restarts    : 20     (Average: 45487.45 Last: 664853)

Atoms       : 694297 (Original: 22189 Auxiliary: 672108)
Rules       : 1402072 (1: 34958/1399619 2: 2053/0 3: 400/0)
Bodies      : 1332752
Equivalences: 1411102 (Atom=Atom: 7304 Body=Body: 10000 Other: 1393798)
Tight       : Yes

Variables   : 1315891 (Eliminated:    0 Frozen:    0)
Constraints : 3894420 (Binary: 67.6% Ternary: 32.3% Other:  0.1%)
Lemmas      : 909749 (Binary:  0.7% Ternary:  0.9% Other: 98.4%)
  Conflict  : 909749 (Average Length: 853.3) 
  Loop      : 0      (Average Length: 0.0) 
  Other     : 0      (Average Length: 0.0)
  Deleted   : 832541
